p cnf 168 212
-26 -25 17 27 0
-26 -25 17 -27 0
-6 -18 28 29 0
-6 -18 28 -29 0
-6 -18 -28 30 0
-6 -18 -28 -30 0
10 -23 16 31 0
10 -23 16 -31 0
14 -1 18 32 0
14 -1 18 -32 0
-7 -11 -1 33 0
-7 -11 -1 -33 0
8 24 -13 34 0
8 24 -13 -34 0
-26 -16 6 35 0
-26 -16 6 -35 0
-8 -24 -13 36 0
-8 -24 -13 -36 0
25 26 17 37 0
25 26 17 -37 0
2 -24 38 39 0
2 -24 38 -39 0
2 -24 -38 40 0
2 -24 -38 -40 0
-25 15 16 41 0
-25 15 16 -41 0
13 -19 42 43 0
13 -19 42 -43 0
13 -19 -42 44 0
13 -19 -42 -44 0
15 21 45 46 0
15 21 45 -46 0
15 21 -45 47 0
15 21 -45 -47 0
1 -11 7 48 0
1 -11 7 -48 0
-15 -6 49 50 0
-15 -6 49 -50 0
-15 -6 -49 51 0
-15 -6 -49 -51 0
23 16 -10 52 0
23 16 -10 -52 0
-16 -25 -15 53 0
-16 -25 -15 -53 0
-4 54 55 57 0
-4 54 55 -57 0
-4 54 -55 58 0
-4 54 -55 -58 0
-4 -54 56 59 0
-4 -54 56 -59 0
-4 -54 -56 60 0
-4 -54 -56 -60 0
23 -22 61 62 0
23 -22 61 -62 0
23 -22 -61 63 0
23 -22 -61 -63 0
14 9 7 64 0
14 9 7 -64 0
-13 -8 19 65 0
-13 -8 19 -65 0
14 -20 -21 66 0
14 -20 -21 -66 0
22 -21 -15 67 0
22 -21 -15 -67 0
26 16 6 68 0
26 16 6 -68 0
-26 -17 25 69 0
-26 -17 25 -69 0
5 70 71 73 0
5 70 71 -73 0
5 70 -71 74 0
5 70 -71 -74 0
5 -70 72 75 0
5 -70 72 -75 0
5 -70 -72 76 0
5 -70 -72 -76 0
25 16 -15 77 0
25 16 -15 -77 0
14 23 -10 78 0
14 23 -10 -78 0
-25 26 -17 79 0
-25 26 -17 -79 0
5 11 80 81 0
5 11 80 -81 0
5 11 -80 82 0
5 11 -80 -82 0
5 3 83 84 0
5 3 83 -84 0
5 3 -83 85 0
5 3 -83 -85 0
22 9 -15 86 0
22 9 -15 -86 0
-16 10 23 87 0
-16 10 23 -87 0
-24 13 8 88 0
-24 13 8 -88 0
-6 -16 26 89 0
-6 -16 26 -89 0
-22 21 90 91 0
-22 21 90 -91 0
-22 21 -90 92 0
-22 21 -90 -92 0
7 -1 11 93 0
7 -1 11 -93 0
15 -9 94 95 0
15 -9 94 -95 0
15 -9 -94 96 0
15 -9 -94 -96 0
11 1 -7 97 0
11 1 -7 -97 0
-10 -23 -16 98 0
-10 -23 -16 -98 0
8 -19 99 100 0
8 -19 99 -100 0
8 -19 -99 101 0
8 -19 -99 -101 0
21 20 102 103 0
21 20 102 -103 0
21 20 -102 104 0
21 20 -102 -104 0
15 25 -16 105 0
15 25 -16 -105 0
-22 -9 106 107 0
-22 -9 106 -107 0
-22 -9 -106 108 0
-22 -9 -106 -108 0
-22 -12 109 110 0
-22 -12 109 -110 0
-22 -12 -109 111 0
-22 -12 -109 -111 0
-2 3 -17 112 0
-2 3 -17 -112 0
24 2 113 114 0
24 2 113 -114 0
24 2 -113 115 0
24 2 -113 -115 0
16 -26 -6 116 0
16 -26 -6 -116 0
18 6 16 117 0
18 6 16 -117 0
-7 -14 118 119 0
-7 -14 118 -119 0
-7 -14 -118 120 0
-7 -14 -118 -120 0
20 -14 121 122 0
20 -14 121 -122 0
20 -14 -121 123 0
20 -14 -121 -123 0
1 -18 124 125 0
1 -18 124 -125 0
1 -18 -124 126 0
1 -18 -124 -126 0
-14 10 127 128 0
-14 10 127 -128 0
-14 10 -127 129 0
-14 10 -127 -129 0
-23 -14 130 131 0
-23 -14 130 -131 0
-23 -14 -130 132 0
-23 -14 -130 -132 0
-15 -8 133 134 0
-15 -8 133 -134 0
-15 -8 -133 135 0
-15 -8 -133 -135 0
-6 -4 136 137 0
-6 -4 136 -137 0
-6 -4 -136 138 0
-6 -4 -136 -138 0
-14 1 139 140 0
-14 1 139 -140 0
-14 1 -139 141 0
-14 1 -139 -141 0
19 22 12 142 0
19 22 12 -142 0
-11 -3 -5 143 0
-11 -3 -5 -143 0
2 -3 144 145 0
2 -3 144 -145 0
2 -3 -144 146 0
2 -3 -144 -146 0
-13 -15 147 148 0
-13 -15 147 -148 0
-13 -15 -147 149 0
-13 -15 -147 -149 0
24 13 -8 150 0
24 13 -8 -150 0
-22 -10 151 152 0
-22 -10 151 -152 0
-22 -10 -151 153 0
-22 -10 -151 -153 0
-19 -12 154 155 0
-19 -12 154 -155 0
-19 -12 -154 156 0
-19 -12 -154 -156 0
22 10 -23 157 0
22 10 -23 -157 0
-7 -9 158 159 0
-7 -9 158 -159 0
-7 -9 -158 160 0
-7 -9 -158 -160 0
15 4 6 161 0
15 4 6 -161 0
-3 17 162 163 0
-3 17 162 -163 0
-3 17 -162 164 0
-3 17 -162 -164 0
-16 -18 165 166 0
-16 -18 165 -166 0
-16 -18 -165 167 0
-16 -18 -165 -167 0
13 8 15 168 0
13 8 15 -168 0

